73
120
84	8
83	7
82	6
81	9
80	10
79	10
78	12
77	7
76	9
75	9
74	9
73	5
72	8
71	13
70	7
69	10
68	3
67	8
66	7
65	8
64	10
63	8
62	7
61	3
60	7
59	5
58	2
57	8
56	5
55	5
54	5
53	6
52	5
51	2
50	6
49	13
48	7
47	5
46	11
45	9
44	3
43	8
42	4
41	6
40	9
39	4
38	5
37	4
36	7
35	3
34	5
33	3
32	8
31	8
30	4
29	5
28	7
27	7
26	5
25	4
24	7
23	10
22	11
21	8
20	8
19	6
18	11
17	7
16	6
15	6
14	9
13	3
12	5
